NAME: Instances/Nodes/30n_10s_15d_instance.tsp
COMMENT: Ben Desjardins (bdesj038@uottawa.ca)
DIMENSION: 30
SPARCITY: 10
%HOLES: 15.0%
EDGE_WEIGHT_TYPE: EUC_2D


NODE	X_LOC	Y_LOC	DEMAND	BATTERY
DATASTART
0	0	0	0	0
1	-342	46	1	60
2	-26	174	1	70
3	-217	-206	1	69
4	75	-253	1	31
5	-32	37	1	10
6	-343	190	1	27
7	293	317	1	46
8	162	-279	1	63
9	-379	300	1	66
10	294	336	1	31
11	361	33	1	20
12	313	11	1	93
13	484	338	1	89
14	100	-258	1	26
15	-487	45	1	56
16	133	49	1	74
17	107	-71	1	9
18	-389	-393	1	55
19	453	436	1	8
20	357	262	1	55
21	60	-417	1	18
22	-161	-92	1	67
23	-184	-355	1	62
24	-479	305	1	16
25	54	-378	1	12
EODATA
NODE	X_LOC	Y_LOC	DEMAND	DEGREE
HOLESTART
0	180	280	-1	12
1	480	460	-1	11
2	-280	-180	-1	12
3	500	280	-1	8
4	400	-320	-1	12
EOHOLE
EOF
